NAME: PointSet_Angle_20_1
TYPE: TSP
COMMENT: Points chosen discrete uniformly at random out of ${0, \ldots, 500}^2$.
DIMENSION: 20
EDGE_WEIGHT_TYPE: EUC_2D
NODE_COORD_SECTION
1 261 376
2 63 363
3 218 460
4 69 283
5 309 467
6 33 295
7 95 143
8 25 488
9 234 269
10 15 470
11 458 306
12 83 191
13 69 353
14 473 72
15 288 109
16 210 48
17 231 273
18 157 450
19 232 473
20 479 287
EOF
